(set-logic ALL)
(set-option :produce-models true)
(declare-sort BoundSet 0)
(declare-sort UnboundSet 0)
(declare-fun IsCold (BoundSet) Bool)
(declare-fun HasHeadache (BoundSet) Bool)
(declare-fun IsDropTemperature (BoundSet) Bool)
(assert (not (=> (and (exists ((b BoundSet)) (exists ((a BoundSet)) (and (IsCold b) (HasHeadache a)))) (and (forall ((d BoundSet)) (forall ((e BoundSet)) (=> (IsCold d) (IsDropTemperature e)))) (forall ((g BoundSet)) (forall ((f BoundSet)) (=> (IsDropTemperature f) (IsCold g)))))) (exists ((c BoundSet)) (exists ((a BoundSet)) (and (IsDropTemperature c) (HasHeadache a)))))))
(check-sat)
(get-model)